
List of user-set options:

                                    Name   Value                used
                           compl_inf_tol = 1                     yes
                         constr_viol_tol = 1                     yes
                            dual_inf_tol = 1000                  yes
                           linear_solver = ma97                  yes
                              ma86_small = 1e-30                  no
                                  ma86_u = 0.0001                 no
                              ma97_order = best                  yes
                              ma97_small = 1e-30                 yes
                            ma97_switch1 = at_start              yes
                            ma97_switch2 = od_hd_reuse           yes
                                  ma97_u = 1e-06                 yes
                               ma97_umax = 0.5                   yes
                                max_iter = 2000                  yes
                    max_refinement_steps = 20                    yes
                    min_refinement_steps = 5                     yes
                                 mu_init = 1e-06                 yes
           mu_superlinear_decrease_power = 1.25                  yes
                   nlp_scaling_min_value = 1e-08                 yes
                        option_file_name = Preset_Case:_219_NCP.opt  yes
                             output_file = ./tmp/Preset_Case:_219_NCP.output  yes
                      print_user_options = yes                   yes
        required_infeasibility_reduction = 1                      no
                                     tol = 1e-08                 yes
                   warm_start_bound_frac = 1e-20                 yes
                   warm_start_bound_push = 1e-20                 yes
                   warm_start_init_point = yes                   yes
              warm_start_mult_bound_push = 1e-20                 yes
                warm_start_mult_init_max = 1e+40                 yes
             warm_start_slack_bound_frac = 1e-20                 yes
             warm_start_slack_bound_push = 1e-20                 yes

******************************************************************************
This program contains Ipopt, a library for large-scale nonlinear optimization.
 Ipopt is released as open source code under the Eclipse Public License (EPL).
         For more information visit http://projects.coin-or.org/Ipopt
******************************************************************************

This is Ipopt version 3.12.10, running with linear solver ma97.

Number of nonzeros in equality constraint Jacobian...:   117140
Number of nonzeros in inequality constraint Jacobian.:      213
Number of nonzeros in Lagrangian Hessian.............:    47462

Total number of variables............................:    29971
                     variables with only lower bounds:    11312
                variables with lower and upper bounds:    15132
                     variables with only upper bounds:        0
Total number of equality constraints.................:    29864
Total number of inequality constraints...............:       25
        inequality constraints with only lower bounds:        4
   inequality constraints with lower and upper bounds:        0
        inequality constraints with only upper bounds:       21

iter    objective    inf_pr   inf_du lg(mu)  ||d||  lg(rg) alpha_du alpha_pr  ls
   0 -5.8293458e-02 2.10e-01 1.00e+00  -6.0 0.00e+00    -  0.00e+00 0.00e+00   0
   1r-5.8293458e-02 2.10e-01 9.99e+02  -0.7 0.00e+00  -4.0 0.00e+00 5.43e-23R 18
In iteration 1, 23 Slacks too small, adjusting variable bounds
   2r-5.8293458e-02 2.10e-01 1.59e+03  -0.7 3.95e+11    -  3.34e-14 1.09e-20f  1
   3r-5.8299393e-02 2.10e-01 2.10e+03  -0.7 4.00e+05    -  1.85e-08 8.99e-09f  1
   4r-5.8309645e-02 2.10e-01 2.10e+03  -0.7 8.51e+04    -  2.08e-08 3.36e-08f  1
   5r-5.8325744e-02 2.10e-01 2.11e+03  -0.7 7.13e+04    -  1.16e-07 7.80e-08f  1
   6r-5.8360113e-02 2.10e-01 2.11e+03  -0.7 6.26e+04    -  2.59e-07 3.30e-07f  1
   7r-5.8390190e-02 2.10e-01 2.10e+03  -0.7 5.13e+04    -  6.68e-07 7.84e-07f  1
   8r-5.8429774e-02 2.10e-01 2.11e+03  -0.7 4.00e+04    -  3.15e-06 3.02e-06f  1
   9r-5.8440197e-02 2.10e-01 2.39e+03  -0.7 2.40e+04    -  1.65e-05 8.32e-06f  1
iter    objective    inf_pr   inf_du lg(mu)  ||d||  lg(rg) alpha_du alpha_pr  ls
  10r-5.8123028e-02 2.05e-01 1.96e+03  -0.7 1.23e+04    -  1.00e-04 1.18e-04f  1
  11 -5.8123055e-02 2.05e-01 1.44e+01  -6.0 4.09e+01    -  1.20e-06 1.73e-05h  1
  12 -5.8123058e-02 2.05e-01 1.99e+04  -6.0 6.60e+02    -  7.78e-03 1.00e-06h  2
  13r-5.8123058e-02 2.05e-01 9.99e+02  -0.7 0.00e+00    -  0.00e+00 2.83e-07R  4
  14r-5.8122410e-02 2.05e-01 4.50e+03  -0.7 1.41e+03    -  3.37e-04 1.94e-07f  1
  15r-5.8122410e-02 2.05e-01 9.99e+02  -0.7 0.00e+00    -  0.00e+00 1.80e-07R  2
  16r-5.8121795e-02 2.05e-01 5.06e+03  -0.7 1.32e+03    -  3.36e-04 1.57e-07f  2
  17 -5.8121822e-02 2.05e-01 8.71e+01  -6.0 4.49e+01    -  2.81e-03 3.20e-05h  1
  18r-5.8121822e-02 2.05e-01 9.99e+02  -0.7 0.00e+00    -  0.00e+00 2.44e-08R  9
  19r-5.8121577e-02 2.05e-01 9.99e+02  -0.7 2.82e+03    -  9.97e-07 7.81e-08f  2
iter    objective    inf_pr   inf_du lg(mu)  ||d||  lg(rg) alpha_du alpha_pr  ls
  20r-5.8121577e-02 2.05e-01 9.99e+02  -0.7 0.00e+00    -  0.00e+00 2.50e-07R  2
  21r-5.8120384e-02 2.05e-01 1.21e+03  -0.7 1.35e+03    -  8.53e-05 3.31e-07f  2
  22 -5.8120439e-02 2.05e-01 3.75e+02  -6.0 4.43e+01    -  2.54e-02 6.77e-05h  1
  23 -5.8121358e-02 2.05e-01 3.69e+04  -6.0 1.96e+03    -  1.79e-03 2.40e-05h  1
  24 -5.8177320e-02 2.04e-01 3.29e+04  -6.0 2.34e+03    -  1.64e-03 2.34e-03h  1
  25r-5.8177320e-02 2.04e-01 9.99e+02  -0.7 0.00e+00    -  0.00e+00 3.39e-09R  2
  26r-5.8174847e-02 2.04e-01 1.17e+03  -0.7 1.19e+04    -  1.51e-07 1.26e-06f  1
  27r-5.8174847e-02 2.04e-01 9.99e+02  -0.7 0.00e+00    -  0.00e+00 8.79e-08R  2
  28r-5.8173427e-02 2.04e-01 9.99e+02  -0.7 1.32e+03    -  6.65e-05 3.94e-07f  1
  29 -5.8173427e-02 2.04e-01 1.19e+06  -6.0 2.48e+02    -  2.29e-02 2.99e-07h  4
iter    objective    inf_pr   inf_du lg(mu)  ||d||  lg(rg) alpha_du alpha_pr  ls
  30 -5.8177020e-02 2.04e-01 5.95e+08  -6.0 3.42e+02    -  2.19e-06 1.10e-03h  1
  31r-5.8177020e-02 2.04e-01 9.99e+02  -0.7 0.00e+00    -  0.00e+00 3.53e-07R  4
  32r-5.8176605e-02 2.04e-01 4.63e+03  -0.7 1.40e+03    -  3.26e-04 1.22e-07f  1
  33r-5.8176605e-02 2.04e-01 9.99e+02  -0.7 0.00e+00    -  0.00e+00 4.90e-07R  2
  34r-5.8176236e-02 2.04e-01 4.73e+03  -0.7 1.36e+03    -  3.26e-04 1.03e-07f  1
  35 -5.8176263e-02 2.04e-01 5.78e+06  -6.0 4.45e+01    -  1.23e-01 2.18e-05h  1
  36 -5.8184397e-02 2.04e-01 1.39e+08  -6.0 1.82e+03    -  2.39e-05 5.73e-04h  2
  37 -5.8203546e-02 2.03e-01 1.39e+08  -6.0 1.80e+03    -  5.39e-03 1.34e-03h  1
  38 -5.8494962e-02 3.75e-01 1.34e+08  -6.0 1.82e+03    -  2.19e-03 3.60e-02h  1
  39 -5.8978159e-02 4.02e-01 1.28e+08  -6.0 9.70e+02    -  5.22e-02 4.56e-02h  1
iter    objective    inf_pr   inf_du lg(mu)  ||d||  lg(rg) alpha_du alpha_pr  ls
  40r-5.8978159e-02 4.02e-01 9.99e+02  -0.5 0.00e+00    -  0.00e+00 4.65e-08R  2
  41r-5.8963602e-02 4.01e-01 4.59e+03  -0.5 1.68e+04    -  1.88e-04 2.63e-06f  1
  42r-5.8963602e-02 4.01e-01 9.99e+02  -0.5 0.00e+00    -  0.00e+00 4.68e-09R 10
  43r-5.8963149e-02 4.01e-01 4.32e+03  -0.5 1.34e+04    -  1.51e-04 7.18e-08f  1
  44 -5.8963166e-02 4.01e-01 5.51e+06  -6.0 6.90e+01    -  1.00e-01 2.47e-05h  1
  45 -5.9012088e-02 3.99e-01 1.93e+09  -6.0 8.45e+02    -  2.64e-05 9.25e-03h  1
  46 -5.9081109e-02 3.95e-01 1.90e+09  -6.0 8.05e+02    -  4.33e-02 1.41e-02h  2
  47 -5.9118585e-02 3.90e-01 1.88e+09  -6.0 7.65e+02    -  3.00e-02 1.21e-02h  4
  48 -5.9160980e-02 3.82e-01 1.85e+09  -6.0 7.28e+02    -  4.69e-02 1.82e-02h  4
  49 -5.9182469e-02 3.76e-01 1.82e+09  -6.0 6.75e+02    -  1.42e-01 1.43e-02h  2
iter    objective    inf_pr   inf_du lg(mu)  ||d||  lg(rg) alpha_du alpha_pr  ls
  50 -5.9191792e-02 3.69e-01 1.79e+09  -6.0 6.48e+02    -  1.15e-01 1.58e-02h  5
  51 -5.9197418e-02 3.62e-01 1.76e+09  -6.0 6.09e+02    -  1.72e-01 1.64e-02h  5
  52 -5.9198787e-02 3.59e-01 1.75e+09  -6.0 5.69e+02    -  1.41e-01 8.59e-03h  6
  53 -5.9199045e-02 3.58e-01 1.74e+09  -6.0 5.49e+02    -  1.89e-01 2.20e-03h  8
  54 -5.9199137e-02 3.58e-01 1.74e+09  -6.0 5.50e+02    -  1.60e-01 5.52e-04h 10
  55 -5.9199154e-02 3.58e-01 1.74e+09  -6.0 5.58e+02    -  2.33e-01 6.90e-05h 13
  56 -5.9318349e-02 3.18e+00 1.25e+09  -6.0 5.74e+02    -  1.35e-01 2.82e-01w  1
  57 -5.9318302e-02 3.18e+00 1.25e+09  -6.0 1.59e+02  -3.6 5.48e-02 5.36e-06w  1
  58 -5.8649087e-02 3.65e+00 8.83e+08  -6.0 4.18e+02    -  4.24e-01 2.94e-01w  1
  59 -5.9199161e-02 3.58e-01 1.74e+09  -6.0 2.60e+02  -4.1 1.35e-01 1.72e-05h 14
iter    objective    inf_pr   inf_du lg(mu)  ||d||  lg(rg) alpha_du alpha_pr  ls
  60 -5.9209630e-02 3.46e-01 1.71e+09  -6.0 5.85e+02    -  2.51e-01 1.76e-02h  5
  61 -5.9227531e-02 3.33e-01 1.68e+09  -6.0 5.22e+02    -  1.46e-01 1.85e-02h  5
  62 -5.9252380e-02 3.40e-01 1.65e+09  -6.0 4.44e+02    -  2.77e-01 1.97e-02h  5
  63 -5.9297370e-02 3.56e-01 1.61e+09  -6.0 4.38e+02    -  1.92e-01 2.09e-02h  5
  64 -5.9350158e-02 3.76e-01 1.58e+09  -6.0 4.37e+02    -  3.72e-01 2.21e-02h  5
  65 -5.9378178e-02 3.81e-01 1.56e+09  -6.0 4.08e+02    -  2.31e-01 1.16e-02h  6
  66 -5.9395560e-02 3.88e-01 1.54e+09  -6.0 4.55e+02    -  4.33e-01 1.19e-02h  6
  67 -5.9385140e-02 3.93e-01 1.53e+09  -6.0 3.54e+02  -4.5 6.83e-02 8.55e-03h  4
  68 -5.9357485e-02 4.04e-01 1.51e+09  -6.0 7.33e+02    -  4.01e-01 1.24e-02h  6
  69 -5.8956913e-02 4.30e-01 1.46e+09  -6.0 2.85e+02  -3.2 3.71e-02 3.26e-02h  1
iter    objective    inf_pr   inf_du lg(mu)  ||d||  lg(rg) alpha_du alpha_pr  ls
  70 -5.8899666e-02 4.29e-01 1.45e+09  -6.0 9.33e+02    -  1.52e-01 3.58e-03h  6
  71 -5.8739570e-02 4.30e-01 1.44e+09  -6.0 1.17e+03    -  7.77e-02 5.22e-03h  5
  72 -5.8779494e-02 4.46e-01 1.41e+09  -6.0 2.78e+02  -3.7 1.68e-01 2.48e-02h  5
  73 -5.8789430e-02 4.45e-01 1.40e+09  -6.0 2.63e+02  -4.2 4.43e-01 5.25e-03h  1
  74 -5.8812089e-02 4.48e-01 1.39e+09  -6.0 2.62e+02  -4.6 2.65e-01 9.60e-03h  6
  75 -5.8903940e-02 4.57e-01 1.37e+09  -6.0 4.12e+02  -5.1 1.43e-07 9.74e-03f  5
  76 -5.8909615e-02 4.55e-01 1.37e+09  -6.0 1.42e+02  -2.9 1.94e-01 4.27e-03h  1
  77 -5.8909704e-02 4.55e-01 1.37e+09  -6.0 2.32e+02  -3.4 2.65e-01 2.25e-04h  1
  78 -5.8952674e-02 4.84e-01 1.33e+09  -6.0 2.36e+02  -3.8 6.21e-01 2.65e-02h  5
  79 -5.8969987e-02 4.83e-01 1.32e+09  -6.0 2.25e+02  -4.3 4.46e-01 8.79e-03h  5
iter    objective    inf_pr   inf_du lg(mu)  ||d||  lg(rg) alpha_du alpha_pr  ls
  80 -5.9004683e-02 4.95e-01 1.31e+09  -6.0 3.27e+02  -4.8 3.25e-03 1.13e-02h  6
  81 -5.9004680e-02 4.95e-01 1.31e+09  -6.0 1.99e+02  -3.5 2.47e-01 1.22e-05h  1
  82 -5.9025817e-02 4.94e-01 1.30e+09  -6.0 1.98e+02  -3.9 2.77e-03 4.16e-03h  1
  83 -5.9025817e-02 4.94e-01 1.30e+09  -6.0 2.13e+02  -3.5 1.28e-06 8.90e-08h  2
  84 -5.9025807e-02 4.94e-01 1.30e+09  -6.0 5.46e+02  -4.0 3.97e-02 6.05e-08h  2
  85 -5.9052969e-02 5.00e-01 1.29e+09  -6.0 2.05e+02  -4.5 1.17e-01 7.97e-03h  6
  86 -5.9115267e-02 5.17e-01 1.29e+09  -6.0 1.70e+03  -4.0 1.49e-08 3.16e-03f  4
  87 -5.9145331e-02 5.09e-01 1.26e+09  -6.0 1.19e+02  -2.7 1.75e-01 2.16e-02h  1
  88 -5.9137528e-02 5.38e-01 1.21e+09  -6.0 1.78e+02  -3.2 2.59e-01 3.62e-02h  3
  89 -5.9143170e-02 5.47e-01 1.19e+09  -6.0 1.62e+02  -3.7 7.43e-01 1.97e-02h  5
iter    objective    inf_pr   inf_du lg(mu)  ||d||  lg(rg) alpha_du alpha_pr  ls
  90 -5.9127728e-02 5.31e-01 1.19e+09  -6.0 6.01e+02  -4.1 1.13e-01 2.14e-03h  4
  91 -5.9075485e-02 5.48e-01 1.18e+09  -6.0 4.40e+02  -4.6 7.03e-02 7.40e-03h  3
  92 -5.9113138e-02 5.63e-01 1.16e+09  -6.0 1.66e+02  -4.2 1.96e-01 1.38e-02h  5
  93 -5.9114052e-02 5.63e-01 1.16e+09  -6.0 1.02e+02  -2.9 2.70e-01 1.19e-03h  1
  94 -5.9108141e-02 5.65e-01 1.14e+09  -6.0 1.43e+02  -3.3 2.54e-01 1.48e-02h  1
  95 -5.9136908e-02 5.84e-01 1.12e+09  -6.0 1.50e+02  -3.8 8.13e-01 1.84e-02h  5
  96 -5.9191585e-02 6.18e-01 1.09e+09  -6.0 1.42e+02  -3.4 2.65e-01 3.12e-02h  3
  97 -5.9217660e-02 6.21e-01 1.08e+09  -6.0 1.61e+02  -3.9 6.74e-01 8.97e-03h  5
  98 -5.9245779e-02 6.21e-01 1.07e+09  -6.0 1.86e+02  -4.3 4.75e-01 5.76e-03h  4
  99 -5.9316812e-02 6.30e-01 1.06e+09  -6.0 2.33e+02  -4.8 4.58e-01 5.96e-03h  3
iter    objective    inf_pr   inf_du lg(mu)  ||d||  lg(rg) alpha_du alpha_pr  ls
 100 -5.9354269e-02 6.36e-01 1.05e+09  -6.0 1.99e+02  -4.4 7.78e-01 9.33e-03h  3
 101 -5.9351452e-02 6.42e-01 1.04e+09  -6.0 3.03e+02  -4.9 4.45e-01 1.41e-02h  4
 102 -5.9388396e-02 6.65e-01 1.01e+09  -6.0 2.15e+02  -4.4 3.95e-01 3.25e-02h  4
 103 -5.9373369e-02 6.55e-01 9.83e+08  -6.0 3.13e+02  -4.9 4.57e-01 2.26e-02h  4
 104 -5.9325561e-02 6.39e-01 9.35e+08  -6.0 2.14e+02  -4.5 3.17e-01 4.89e-02h  3
 105 -5.8777129e-02 1.74e+00 8.20e+08  -6.0 3.30e+02  -5.0 5.81e-01 1.23e-01w  1
 106 -5.6499768e-02 1.60e+00 7.47e+08  -6.0 1.09e+03  -5.4 1.01e-01 8.96e-02w  1
 107 -5.6316476e-02 1.57e+00 7.31e+08  -6.0 4.01e+03  -5.9 3.45e-02 2.07e-02w  1
 108 -5.9188453e-02 6.17e-01 9.06e+08  -6.0 6.46e+02  -5.5 5.81e-01 3.07e-02h  2
 109 -5.9040030e-02 6.02e-01 8.83e+08  -6.0 4.13e+02  -5.1 3.14e-01 2.56e-02h  3
iter    objective    inf_pr   inf_du lg(mu)  ||d||  lg(rg) alpha_du alpha_pr  ls
 110 -5.8951346e-02 5.78e-01 8.34e+08  -6.0 1.86e+02  -4.6 8.24e-01 5.58e-02h  2
 111 -5.8771709e-02 5.72e-01 8.17e+08  -6.0 5.83e+02  -5.1 3.88e-01 1.97e-02h  4
 112 -5.8696687e-02 5.72e-01 8.16e+08  -6.0 1.74e+03  -5.6 8.32e-02 1.63e-03h  6
 113 -5.8487604e-02 5.78e-01 7.97e+08  -6.0 6.08e+02  -5.2 4.20e-01 2.31e-02h  4
 114 -5.8480530e-02 5.78e-01 7.97e+08  -6.0 1.14e+04  -5.7 4.64e-03 3.01e-05h  9
 115 -5.8392285e-02 5.76e-01 7.90e+08  -6.0 7.89e+02  -5.2 1.00e+00 8.10e-03h  5
 116 -5.8238189e-02 5.72e-01 7.53e+08  -6.0 3.08e+02  -4.8 6.18e-01 4.74e-02h  4
 117 -5.8186767e-02 5.71e-01 7.50e+08  -6.0 1.05e+03  -5.3 6.80e-02 3.64e-03h  6
 118 -5.6265550e-02 1.75e+00 4.85e+08  -6.0 3.75e+02  -4.9 1.74e-02 3.54e-01w  1
 119 -5.3752174e-02 1.70e+00 4.60e+08  -6.0 8.08e+02  -5.3 7.36e-03 5.22e-02w  1
iter    objective    inf_pr   inf_du lg(mu)  ||d||  lg(rg) alpha_du alpha_pr  ls
 120  2.2198249e+00 1.28e+00 1.33e+08  -6.0 3.00e+02  -4.9 8.59e-04 7.11e-01w  1
Error in an AMPL evaluation. Run with "halt_on_ampl_error yes" to see details.
Warning: Cutting back alpha due to evaluation error
 121 -5.7946615e-02 5.67e-01 7.17e+08  -6.0 2.03e+02  -5.4 1.74e-02 4.42e-02h  3
 122 -5.6721601e-02 5.65e-01 6.87e+08  -6.0 4.47e+02  -5.0 4.01e-03 4.13e-02h  4
 123 -5.7767995e-02 5.64e-01 6.87e+08  -6.0 1.67e+03  -5.4 1.14e-01 7.09e-04h  1
 124 -5.7186047e-02 5.60e-01 6.59e+08  -6.0 4.63e+02  -5.0 3.78e-03 4.04e-02h  4
 125 -5.7151265e-02 5.59e-01 6.57e+08  -6.0 1.82e+03  -5.5 1.02e-01 3.34e-03h  5
 126 -5.6741827e-02 5.51e-01 6.31e+08  -6.0 4.78e+02  -5.1 5.43e-02 3.94e-02h  4
 127 -5.7269916e-02 5.51e-01 6.31e+08  -6.0 2.39e+03  -5.5 1.37e-01 6.00e-04h  1
 128 -5.6705630e-02 5.48e-01 5.88e+08  -6.0 4.77e+02  -5.1 1.45e-02 6.76e-02h  3
 129 -5.6673548e-02 5.48e-01 5.87e+08  -6.0 3.02e+03  -5.6 3.11e-01 2.12e-03h  6
iter    objective    inf_pr   inf_du lg(mu)  ||d||  lg(rg) alpha_du alpha_pr  ls
 130 -5.6366378e-02 5.07e-01 5.29e+08  -6.0 3.35e+02  -5.2 3.22e-01 9.78e-02h  3
 131 -5.6598038e-02 5.07e-01 5.29e+08  -6.0 5.21e+03  -5.6 2.39e-02 8.83e-04h  1
 132 -5.4815688e-02 4.56e-01 4.49e+08  -6.0 3.42e+02  -5.2 6.51e-03 1.51e-01h  1
 133 -5.5082324e-02 4.58e-01 4.49e+08  -6.0 6.13e+04  -5.7 3.12e-03 2.41e-04h  3
 134 -5.4385358e-02 4.28e-01 4.00e+08  -6.0 2.93e+02  -5.3 1.29e-01 1.10e-01h  3
 135  9.4927540e-01 6.17e-01 2.31e+08  -6.0 8.76e+01  -4.8 7.56e-04 4.21e-01H  1
 136  4.3847857e-01 1.44e-01 7.13e+07  -6.0 1.61e+02  -5.3 8.04e-01 6.92e-01H  1
 137  4.0040397e-01 1.43e-01 6.93e+07  -6.0 5.31e+02  -5.8 8.94e-02 2.82e-02h  1
 138 -5.5805032e-02 1.91e-01 3.02e+07  -6.0 1.08e+02  -5.4 9.33e-01 5.64e-01f  1
 139  1.4775103e-02 1.73e-01 1.55e+07  -6.0 7.30e+01  -5.8 3.39e-01 4.87e-01H  1
iter    objective    inf_pr   inf_du lg(mu)  ||d||  lg(rg) alpha_du alpha_pr  ls
 140 -5.5635859e-02 9.11e-02 8.86e+06  -6.0 2.64e+01  -5.4 7.16e-02 4.28e-01h  1
 141 -5.5730211e-02 3.63e-02 4.39e+06  -6.0 4.46e+01  -5.9 3.19e-01 5.05e-01h  1
 142 -5.5729584e-02 3.62e-02 4.39e+06  -6.0 1.32e+03  -6.4 2.37e-03 1.35e-03h  6
 143 -5.6305172e-02 9.81e-03 1.22e+05  -6.0 1.35e+01  -5.9 4.72e-01 1.00e+00h  1
 144 -5.8156269e-02 4.01e-02 3.53e+04  -6.0 3.74e+01  -6.4 7.14e-01 9.90e-01h  1
 145 -5.8268511e-02 3.97e-02 2.86e+04  -6.0 1.34e+02  -6.9 1.90e-01 1.49e-02h  1
 146 -6.0662996e-02 6.19e-02 2.08e+04  -6.0 4.59e+01  -6.5 2.74e-01 1.00e+00h  1
 147 -6.1703530e-02 2.69e-02 1.07e+04  -6.0 1.73e+01  -6.0 4.86e-01 7.45e-01h  1
 148 -6.2944736e-02 1.99e-01 6.53e+03  -6.0 7.27e+01  -6.5 3.88e-01 2.74e-01h  2
 149 -6.3546066e-02 9.90e-03 3.06e+03  -6.0 2.73e+00  -5.2 5.32e-01 1.00e+00h  1
iter    objective    inf_pr   inf_du lg(mu)  ||d||  lg(rg) alpha_du alpha_pr  ls
 150 -6.4726599e-02 7.70e-01 2.33e+03  -6.0 8.66e+00  -5.7 2.37e-01 8.26e-01h  1
 151 -6.7888812e-02 9.22e-01 2.05e+03  -6.0 4.71e+01  -6.1 1.20e-01 4.89e-01F  1
 152 -6.8555620e-02 9.20e-01 1.88e+03  -6.0 7.70e+01  -6.6 8.34e-02 5.10e-02h  1
 153 -6.8849829e-02 9.03e-01 1.70e+03  -6.0 1.63e+02  -7.1 9.86e-02 1.88e-02h  1
 154 -6.9745640e-02 8.93e-01 1.65e+03  -6.0 7.71e+02  -7.6 2.83e-02 1.60e-02f  1
 155 -7.0452335e-02 8.67e-01 1.56e+03  -6.0 6.33e+02  -8.1 5.33e-02 2.21e-02h  2
 156 -7.0854104e-02 8.84e-01 1.54e+03  -6.0 3.48e+04  -8.5 1.02e-02 1.38e-03h  2
 157 -7.1139163e-02 8.77e-01 1.42e+03  -6.0 6.41e+02  -8.1 7.77e-02 9.23e-03h  3
 158 -7.1320599e-02 8.48e-01 1.25e+03  -6.0 9.81e+01  -6.8 1.21e-01 4.49e-02h  2
 159 -7.1625307e-02 8.25e-01 5.10e+02  -6.0 1.64e+02  -7.3 5.92e-01 2.60e-02h  3
iter    objective    inf_pr   inf_du lg(mu)  ||d||  lg(rg) alpha_du alpha_pr  ls
 160 -7.7242812e-02 1.06e+01 3.81e+02  -6.0 2.69e+02  -7.7 2.53e-01 3.12e-01h  1
 161 -7.7144933e-02 8.98e+00 3.70e+02  -6.0 1.52e+01  -5.5 2.70e-02 1.50e-01h  1
 162 -7.7272312e-02 6.03e+00 1.38e+02  -6.0 1.04e+01  -6.0 6.29e-01 3.28e-01h  1
 163 -7.7376810e-02 5.74e+00 1.10e+02  -6.0 2.21e+01  -6.5 1.98e-01 4.81e-02h  1
 164 -7.8797674e-02 2.52e+00 5.83e+01  -6.0 8.51e+01  -6.9 4.72e-01 5.62e-01h  1
 165 -7.9934407e-02 2.06e+00 1.39e+02  -6.0 2.11e+02  -7.4 2.92e-02 1.83e-01h  1
 166 -8.4126740e-02 2.39e+00 6.24e+01  -6.0 4.31e+02  -7.9 3.27e-01 3.60e-01h  1
 167 -8.4194257e-02 2.20e+00 5.59e+01  -6.0 2.96e+01  -6.6 1.46e-01 8.25e-02h  1
 168 -8.4451428e-02 1.90e+00 2.79e+02  -6.0 9.71e+01  -7.0 2.66e-01 1.34e-01f  1
 169 -8.6189666e-02 1.21e+00 2.49e+02  -6.0 2.22e+02  -7.5 1.71e-01 3.54e-01h  1
iter    objective    inf_pr   inf_du lg(mu)  ||d||  lg(rg) alpha_du alpha_pr  ls
 170 -8.6245948e-02 1.19e+00 2.34e+02  -6.0 5.31e+01  -7.1 1.18e-02 9.93e-03h  1
 171 -8.7955980e-02 8.58e-01 5.60e+03  -6.0 2.51e+02  -7.6 2.99e-02 3.34e-01h  1
 172 -8.8080464e-02 8.58e-01 5.80e+03  -6.0 1.48e+03  -8.0 2.06e-04 3.26e-03h  1
 173 -8.8034411e-02 4.41e-01 2.34e+03  -6.0 1.94e+00  -4.9 2.42e-01 5.04e-01h  1
 174 -8.8101877e-02 5.80e-02 2.70e+03  -6.0 1.98e+00  -5.4 2.75e-01 8.80e-01h  1
 175 -8.8155410e-02 5.56e-02 2.32e+03  -6.0 9.75e+00  -5.9 1.30e-01 4.57e-02h  1
 176 -8.8156149e-02 5.56e-02 2.27e+03  -6.0 1.27e+01  -3.6 2.09e-03 1.32e-03h  1
 177 -8.8170029e-02 5.32e-05 3.24e+07  -6.0 1.54e-01  -4.1 6.96e-06 1.00e+00f  1
 178 -8.8227738e-02 6.10e-04 4.35e+01  -6.0 4.63e-01  -4.6 5.66e-01 1.00e+00h  1
 179 -8.8378313e-02 1.90e-03 3.31e+01  -6.0 1.61e+00  -5.1 6.67e-01 1.00e+00h  1
iter    objective    inf_pr   inf_du lg(mu)  ||d||  lg(rg) alpha_du alpha_pr  ls
 180 -8.8570791e-02 3.14e-03 2.45e+01  -6.0 8.51e+00  -5.5 2.78e-01 2.31e-01h  1
 181 -8.9189868e-02 1.97e-01 4.07e+03  -6.0 7.63e+00  -6.0 5.59e-01 1.00e+00f  1
 182 -8.9398341e-02 1.79e-01 4.10e+03  -6.0 1.81e+01  -5.6 8.11e-02 9.43e-02h  1
 183 -8.9998572e-02 3.17e+00 7.28e+03  -6.0 6.68e+01  -6.1 5.02e-02 3.65e-01f  1
 184 -8.9996848e-02 2.99e+00 6.68e+03  -6.0 4.75e+00  -2.9 7.35e-02 5.56e-02h  1
 185 -8.9985869e-02 2.73e+00 6.85e+03  -6.0 4.36e+00  -2.5 6.48e-03 8.75e-02h  1
 186 -8.9981599e-02 2.69e+00 6.68e+03  -6.0 3.51e+00  -2.1 2.34e-02 1.63e-02h  1
 187 -8.9929324e-02 2.63e+00 6.69e+03  -6.0 1.92e+01  -2.6 6.99e-03 2.25e-02h  1
 188 -8.9917033e-02 2.57e+00 6.25e+03  -6.0 4.93e+00  -2.1 5.63e-02 2.12e-02h  1
 189 -8.9829260e-02 2.55e+00 6.22e+03  -6.0 7.67e+01  -2.6 6.50e-03 8.23e-03h  1
iter    objective    inf_pr   inf_du lg(mu)  ||d||  lg(rg) alpha_du alpha_pr  ls
 190 -8.9820757e-02 2.52e+00 5.40e+03  -6.0 6.19e+00  -2.2 3.62e-01 1.18e-02h  1
 191 -8.9756130e-02 2.51e+00 5.42e+03  -6.0 2.31e+02  -2.7 4.94e-03 2.12e-03h  1
 192 -8.9729173e-02 2.40e+00 5.36e+03  -6.0 5.99e+00  -2.2 5.62e-01 4.49e-02h  1
 193 -8.9330398e-02 2.24e+00 4.83e+03  -6.0 4.74e+01  -2.7 3.08e-02 7.31e-02h  1
 194 -8.9361809e-02 1.47e+00 2.94e+03  -6.0 2.63e+00  -2.3 8.07e-01 3.57e-01h  1
 195 -8.9455494e-02 1.25e-01 1.70e+02  -6.0 2.06e+00  -2.8 3.50e-01 1.00e+00h  1
 196 -8.9507337e-02 3.20e-05 9.33e+00  -6.0 1.80e-01  -3.2 6.42e-01 1.00e+00h  1
 197 -8.9676162e-02 4.19e-04 5.09e+00  -6.0 3.67e-01  -3.7 6.58e-01 1.00e+00h  1
 198 -8.9903519e-02 8.59e-04 4.28e+00  -6.0 1.18e+00  -4.2 2.11e-01 3.26e-01h  1
 199 -8.9942274e-02 1.88e-03 2.72e+00  -6.0 2.11e+00  -4.7 2.53e-01 1.97e-01f  1
iter    objective    inf_pr   inf_du lg(mu)  ||d||  lg(rg) alpha_du alpha_pr  ls
 200 -9.0125421e-02 1.83e-02 8.05e+00  -6.0 3.78e+00  -5.1 4.92e-01 1.96e-01f  1
 201 -9.0215934e-02 1.80e-02 4.05e+01  -6.0 5.67e+00  -5.6 1.00e+00 8.73e-02h  1
 202 -9.0557136e-02 3.23e-02 3.22e+01  -6.0 1.33e+01  -6.1 2.26e-01 2.18e-01f  1
 203 -9.1038825e-02 2.16e-01 4.58e+01  -6.0 3.06e+01  -6.6 9.74e-01 2.45e-01h  1
 204 -9.2885989e-02 1.19e+00 4.22e+01  -6.0 8.07e+01  -7.1 6.66e-01 8.06e-01h  1
 205 -9.7134291e-02 1.04e+00 2.00e+02  -6.0 2.17e+02  -7.5 4.83e-01 7.96e-01h  1
 206 -1.0124571e-01 1.24e+00 1.35e+02  -6.0 6.62e+02  -8.0 4.28e-01 2.92e-01h  1
 207 -1.0134523e-01 1.24e+00 1.35e+02  -6.0 4.15e+03  -8.5 1.23e-03 4.68e-03h  1
 208 -1.0135447e-01 1.24e+00 1.35e+02  -6.0 1.83e+03  -8.1 5.52e-03 3.25e-04h  1
 209 -1.0253887e-01 1.36e+00 1.34e+02  -6.0 1.23e+04  -7.6 8.38e-03 6.59e-03f  1
iter    objective    inf_pr   inf_du lg(mu)  ||d||  lg(rg) alpha_du alpha_pr  ls
 210 -1.0260278e-01 1.35e+00 1.32e+02  -6.0 4.55e+02  -8.1 7.21e-02 9.94e-03h  1
 211 -1.0414287e-01 5.52e-01 1.75e+01  -6.0 1.71e+02  -7.7 1.00e+00 8.85e-01h  1
 212 -1.0524026e-01 5.26e-01 3.15e+01  -6.0 4.28e+02  -8.2 3.05e-01 2.34e-01h  1
 213 -1.0784757e-01 1.62e+00 2.70e+03  -6.0 1.12e+03  -8.6 6.01e-01 2.24e-01h  1
 214 -1.0976734e-01 2.76e+01 2.37e+03  -6.0 2.48e+04  -9.1 3.03e-02 4.60e-02h  1
 215 -1.1131694e-01 2.29e+01 3.23e+03  -6.0 9.24e+02  -8.7 3.32e-01 1.69e-01h  1
 216 -1.1293612e-01 1.50e+01 1.42e+03  -6.0 7.63e+02  -8.3 2.19e-01 3.61e-01h  1
 217 -1.1345868e-01 6.28e+00 5.85e+04  -6.0 1.27e+02  -6.9 7.30e-02 5.81e-01h  1
 218 -1.1397147e-01 3.35e+00 3.11e+04  -6.0 1.57e+02  -7.4 3.39e-01 4.68e-01h  1
 219 -1.1583037e-01 5.33e-01 1.72e+03  -6.0 1.78e+02  -7.9 6.72e-01 1.00e+00h  1
iter    objective    inf_pr   inf_du lg(mu)  ||d||  lg(rg) alpha_du alpha_pr  ls
 220 -1.1669941e-01 5.30e-01 3.63e+03  -6.0 3.81e+02  -8.4 4.36e-01 2.10e-01h  1
 221 -1.1721655e-01 5.27e-01 8.00e+03  -6.0 8.84e+02  -8.8 2.02e-01 6.11e-02h  1
 222 -1.1816076e-01 7.35e-01 5.14e+06  -6.0 1.05e+03  -8.4 5.09e-04 1.21e-01h  1
 223 -1.1931723e-01 7.43e-01 4.28e+06  -6.0 8.45e+02  -8.9 4.19e-02 1.68e-01h  1
 224 -1.1953828e-01 7.33e-01 3.75e+06  -6.0 3.89e+02  -8.5 4.66e-01 1.23e-01h  1
 225 -1.1976941e-01 6.51e-01 3.58e+06  -6.0 9.63e+02  -8.9 2.98e-01 4.47e-02h  1
 226 -1.2075985e-01 7.92e-01 2.12e+06  -6.0 3.75e+02  -8.5 1.00e+00 4.09e-01h  1
 227 -1.2187627e-01 1.50e+00 1.53e+06  -6.0 7.31e+02  -9.0 5.44e-01 2.77e-01h  1
 228 -1.2315290e-01 4.64e+00 1.36e+06  -6.0 5.14e+03  -9.5 6.30e-03 1.09e-01h  1
 229 -1.2319002e-01 4.59e+00 1.35e+06  -6.0 8.38e+02  -9.0 1.84e-03 1.06e-02h  1
iter    objective    inf_pr   inf_du lg(mu)  ||d||  lg(rg) alpha_du alpha_pr  ls
 230 -1.2323123e-01 4.37e+00 1.28e+06  -6.0 2.73e+03  -8.6 2.21e-02 5.15e-02f  1
 231 -1.2418041e-01 1.81e+00 3.90e+05  -6.0 4.39e+02  -8.2 9.69e-02 6.95e-01h  1
 232 -1.2493957e-01 1.42e+00 1.78e+05  -6.0 3.54e+02  -8.7 2.49e-01 5.43e-01h  1
 233 -1.2556689e-01 1.90e+00 1.42e+05  -6.0 9.33e+02  -9.1 1.84e-01 1.96e-01h  1
 234 -1.2671614e-01 3.50e+00 2.86e+02  -6.0 3.91e+02  -8.7 6.82e-01 1.00e+00h  1
 235 -1.2684838e-01 3.44e+00 2.84e+02  -6.0 3.11e+02  -6.5 7.06e-03 1.63e-02h  1
 236 -1.2698095e-01 9.74e-01 8.11e+01  -6.0 1.16e+01  -7.0 4.90e-01 7.17e-01h  1
 237 -1.2708134e-01 6.22e-01 5.16e+01  -6.0 3.15e+01  -7.4 9.11e-01 3.65e-01h  1
 238 -1.2755393e-01 2.54e-01 1.47e+01  -6.0 9.65e+01  -7.9 1.00e+00 1.00e+00h  1
 239 -1.2802716e-01 5.43e-01 3.34e+01  -6.0 3.05e+02  -8.4 3.51e-01 4.38e-01h  1
iter    objective    inf_pr   inf_du lg(mu)  ||d||  lg(rg) alpha_du alpha_pr  ls
 240 -1.2830643e-01 7.17e-01 2.13e+01  -6.0 9.94e+02  -8.9 1.69e-01 9.86e-02h  1
 241 -1.2865860e-01 5.53e-01 1.74e+03  -6.0 1.78e+02  -8.5 1.00e+00 3.92e-01h  1
 242 -1.2889277e-01 5.70e-01 1.89e+03  -6.0 5.21e+02  -8.9 5.15e-01 1.09e-01h  1
 243 -1.2898920e-01 2.63e+00 6.66e+02  -6.0 2.69e+02  -8.5 6.02e-01 2.62e-01h  1
 244 -1.2978383e-01 3.24e+00 1.10e+02  -6.0 3.24e+02  -9.0 3.75e-01 6.08e-01h  1
 245 -1.3025451e-01 7.39e-01 1.42e+03  -6.0 1.73e+02  -8.6 4.18e-01 9.08e-01h  1
 246 -1.3025915e-01 7.39e-01 1.84e+03  -6.0 4.28e+04  -9.0 5.22e-03 4.13e-04h  1
 247 -1.3054600e-01 9.81e-01 2.09e+03  -6.0 3.33e+03  -9.5 4.60e-02 6.99e-02h  1
 248 -1.3193205e-01 3.46e+00 1.18e+04  -6.0 4.83e+02  -9.1 1.41e-01 9.87e-01h  1
 249 -1.3201498e-01 3.36e+00 1.23e+03  -6.0 2.58e+02  -8.7 1.65e-01 3.91e-02h  1
iter    objective    inf_pr   inf_du lg(mu)  ||d||  lg(rg) alpha_du alpha_pr  ls
 250 -1.3282629e-01 8.66e+00 7.06e+05  -6.0 7.03e+02  -9.1 7.79e-03 3.05e-01h  1
 251 -1.3298410e-01 8.75e+00 6.78e+05  -6.0 1.62e+03  -9.6 5.50e-02 3.98e-02h  1
 252 -1.3392842e-01 1.87e+01 5.81e+05  -6.0 4.49e+03 -10.1 1.03e-01 1.42e-01f  1
 253 -1.3441325e-01 1.35e+01 3.96e+05  -6.0 1.81e+03  -9.7 2.84e-01 3.18e-01h  1
 254 -1.3590462e-01 1.01e+01 1.54e+05  -6.0 1.92e+03 -10.1 2.93e-01 6.08e-01h  1
 255 -1.3604935e-01 8.73e+00 1.34e+05  -6.0 6.50e+01  -7.9 2.83e-01 1.32e-01h  1
 256 -1.3612096e-01 5.36e+00 8.22e+04  -6.0 3.30e+02  -8.4 1.06e-01 3.86e-01h  1
 257 -1.3627275e-01 3.80e+00 5.84e+04  -6.0 2.25e+01  -7.1 6.06e-01 2.89e-01h  1
 258 -1.3651393e-01 2.16e+00 1.79e+04  -6.0 1.92e+01  -7.5 1.00e+00 6.96e-01h  1
 259 -1.3660766e-01 1.43e+00 9.08e+03  -6.0 6.03e+01  -8.0 1.69e-01 4.96e-01h  1
iter    objective    inf_pr   inf_du lg(mu)  ||d||  lg(rg) alpha_du alpha_pr  ls
 260 -1.3689625e-01 1.46e+00 2.09e+02  -6.0 1.00e+02  -8.5 1.00e+00 9.87e-01h  1
 261 -1.3704973e-01 1.00e+00 1.15e+02  -6.0 1.26e+02  -9.0 5.45e-01 4.49e-01h  1
 262 -1.3741097e-01 1.05e+00 4.99e+01  -6.0 3.10e+02  -9.4 1.00e+00 8.24e-01h  1
 263 -1.3767406e-01 3.93e+00 1.76e+02  -6.0 4.04e+02  -9.9 1.00e+00 6.86e-01h  1
 264 -1.3773239e-01 3.70e+00 3.66e+02  -6.0 8.84e+02 -10.4 5.25e-01 2.06e-01h  1
 265 -1.3782073e-01 2.61e+00 6.33e+02  -6.0 4.52e+02 -10.0 1.00e+00 3.03e-01h  1
 266 -1.3798463e-01 1.54e+01 2.30e+03  -6.0 1.07e+03 -10.4 4.67e-02 1.00e+00h  1
 267 -1.3796374e-01 5.59e+01 1.60e+03  -6.0 6.28e+03    -  1.54e-01 2.98e-01h  1
 268 -1.3785037e-01 3.83e+01 1.77e+02  -6.0 1.74e+03    -  3.11e-01 1.00e+00h  1
 269 -1.3780725e-01 7.84e-02 1.96e+01  -6.0 1.11e+02  -9.1 8.42e-01 1.00e+00h  1
iter    objective    inf_pr   inf_du lg(mu)  ||d||  lg(rg) alpha_du alpha_pr  ls
 270 -1.3778297e-01 5.76e+01 2.93e+01  -6.0 4.72e+03    -  1.40e-01 4.49e-01h  1
 271 -1.3768513e-01 6.26e+01 5.39e+04  -6.0 3.91e+04  -9.6 1.36e-03 1.83e-02h  2
 272 -1.3769509e-01 6.11e+01 4.58e+04  -6.0 1.99e+03  -9.2 1.60e-01 2.47e-02h  1
 273 -1.3770154e-01 5.83e+01 5.21e+04  -6.0 1.19e+03  -9.6 1.43e-01 4.59e-02h  1
 274 -1.3770580e-01 3.68e-01 2.10e+02  -6.0 1.20e+02  -9.2 6.02e-01 1.00e+00h  1
 275 -1.3775565e-01 1.27e+00 6.43e+00  -6.0 2.18e+02  -9.7 1.00e+00 1.00e+00h  1
 276 -1.3775974e-01 7.91e-01 7.19e+00  -6.0 6.19e+02 -10.2 1.00e+00 2.89e-01h  1
 277 -1.3773807e-01 7.57e+00 4.31e+00  -6.0 9.91e+02    -  1.00e+00 1.00e+00H  1
 278 -1.3775329e-01 4.05e-02 4.82e-01  -6.0 4.76e+01  -8.8 1.00e+00 1.00e+00h  1
 279 -1.3775640e-01 1.84e-01 1.63e-01  -6.0 7.50e+01  -9.3 1.00e+00 1.00e+00h  1
iter    objective    inf_pr   inf_du lg(mu)  ||d||  lg(rg) alpha_du alpha_pr  ls
 280 -1.3775341e-01 4.53e-01 9.28e-02  -6.0 1.54e+02  -9.8 1.00e+00 1.00e+00h  1
 281 -1.3775298e-01 5.02e-01 4.16e+01  -6.0 4.41e+04    -  6.31e-02 1.18e-03h  2
 282 -1.3773923e-01 7.35e-01 7.33e+00  -6.0 5.11e+02    -  1.00e+00 4.11e-01h  1
 283 -1.3772961e-01 4.15e+00 1.63e+00  -6.0 6.43e+02    -  1.00e+00 8.97e-01h  1
 284 -1.3773135e-01 1.55e+00 4.81e+00  -6.0 1.46e+02    -  6.90e-02 1.00e+00h  1
 285 -1.3773161e-01 1.79e-01 2.01e-02  -6.0 5.96e+01    -  1.00e+00 1.00e+00h  1
 286 -1.3773246e-01 6.75e-02 1.62e+00  -6.0 1.59e+02    -  1.00e+00 2.82e-01h  2
 287 -1.3773050e-01 4.28e-02 3.09e-02  -6.0 4.75e+01    -  1.00e+00 9.79e-01H  1
 288 -1.3773069e-01 1.05e-02 7.73e-04  -6.0 1.41e+01    -  1.00e+00 1.00e+00f  1
 289 -1.3773073e-01 4.75e-06 1.32e-05  -6.0 3.57e-01    -  1.00e+00 1.00e+00h  1
iter    objective    inf_pr   inf_du lg(mu)  ||d||  lg(rg) alpha_du alpha_pr  ls
 290 -1.3823984e-01 6.78e-01 1.28e+01  -7.5 2.62e+03    -  2.17e-01 2.07e-01h  1
 291 -1.3861834e-01 1.10e+00 1.64e+01  -7.5 2.52e+03    -  2.14e-01 2.15e-01h  1
 292 -1.3878612e-01 1.09e+00 3.25e+01  -7.5 2.25e+03    -  3.07e-01 1.34e-01h  1
 293 -1.3889558e-01 9.92e-01 2.91e+01  -7.5 1.51e+03 -10.3 7.77e-02 9.60e-02h  1
 294 -1.3900973e-01 1.05e+00 4.36e+01  -7.5 8.37e+03  -9.8 3.68e-03 1.45e-02h  1
 295 -1.3911149e-01 1.79e+00 7.52e+01  -7.5 4.41e+03 -10.3 6.09e-02 5.07e-02h  1
 296 -1.3922391e-01 1.07e+01 6.65e+01  -7.5 5.66e+03    -  8.52e-02 1.34e-01h  1
 297 -1.3927681e-01 1.32e+01 5.39e+01  -7.5 6.88e+03    -  4.30e-05 6.36e-02h  1
 298 -1.3966076e-01 2.79e+01 8.79e+01  -7.5 1.84e+03    -  8.99e-02 6.34e-01h  1
 299 -1.3968337e-01 2.49e+01 4.47e+01  -7.5 1.36e+03    -  4.01e-01 1.09e-01h  1
iter    objective    inf_pr   inf_du lg(mu)  ||d||  lg(rg) alpha_du alpha_pr  ls
 300 -1.3973626e-01 1.89e+01 4.90e+01  -7.5 1.50e+03    -  5.61e-02 2.45e-01h  1
 301 -1.3979461e-01 1.74e+01 2.99e+01  -7.5 2.26e+03  -9.9 3.08e-01 8.12e-02h  1
 302 -1.3983536e-01 1.33e+01 3.53e+01  -7.5 1.68e+03    -  2.86e-02 2.41e-01h  1
 303 -1.3986823e-01 1.02e+01 1.90e+01  -7.5 7.50e+02    -  4.12e-01 2.39e-01h  1
 304 -1.3998807e-01 2.92e+00 4.49e+01  -7.5 5.69e+02    -  4.47e-01 1.00e+00h  1
 305 -1.4002576e-01 1.58e+00 3.63e+01  -7.5 1.96e+02    -  1.81e-01 4.58e-01h  1
 306 -1.4008295e-01 6.27e-01 2.32e+01  -7.5 2.27e+02    -  4.88e-01 6.61e-01h  1
 307 -1.4010081e-01 5.00e-01 4.92e+01  -7.5 1.68e+01  -7.7 8.23e-05 2.01e-01h  1
 308 -1.4013973e-01 1.85e+00 1.16e+02  -7.5 3.65e+01  -8.1 5.57e-02 4.39e-01f  1
 309 -1.4022561e-01 2.46e-01 1.58e+02  -7.5 6.15e+00  -8.6 6.08e-01 1.00e+00h  1
iter    objective    inf_pr   inf_du lg(mu)  ||d||  lg(rg) alpha_du alpha_pr  ls
 310 -1.4027067e-01 1.13e-01 4.56e+02  -7.5 1.07e+01  -9.1 1.00e+00 4.85e-01h  1
 311 -1.4032696e-01 2.11e-01 1.38e+02  -7.5 2.87e+01  -9.6 5.09e-01 5.60e-01h  1
 312 -1.4036203e-01 1.97e-01 2.12e+03  -7.5 6.80e+01 -10.1 1.00e+00 3.16e-01h  1
 313 -1.4039842e-01 2.50e-01 1.87e+03  -7.5 4.59e+02 -10.5 4.89e-01 3.09e-01h  1
 314 -1.4044884e-01 1.60e+01 6.25e+02  -7.5 3.12e+03    -  2.68e-02 3.64e-01h  1
 315 -1.4045089e-01 1.79e+01 1.34e+03  -7.5 4.10e+04    -  6.89e-05 1.27e-02h  1
 316r-1.4045089e-01 1.79e+01 1.00e+03   1.0 0.00e+00    -  0.00e+00 6.65e-11R 25
 317r-1.4045578e-01 1.79e+01 1.00e+03   1.0 4.14e+09    -  4.02e-11 6.72e-09f  1
 318 -1.4045585e-01 1.78e+01 7.57e+03  -7.5 7.99e+01    -  1.01e-06 7.66e-03h  1
 319 -1.4044578e-01 1.21e+01 2.44e+04  -7.5 6.86e+01    -  1.45e-02 3.18e-01h  1
iter    objective    inf_pr   inf_du lg(mu)  ||d||  lg(rg) alpha_du alpha_pr  ls
 320 -1.4043803e-01 8.04e+00 2.25e+06  -7.5 5.11e+01    -  2.24e-01 3.37e-01h  1
 321 -1.4042144e-01 2.05e-02 6.53e+06  -7.5 3.59e+01    -  3.82e-01 1.00e+00h  1
 322 -1.4042081e-01 1.43e-06 2.94e+05  -7.5 3.33e-01    -  5.48e-01 1.00e+00h  1
 323 -1.4042094e-01 4.38e-09 2.65e+02  -7.5 1.32e-02    -  9.99e-01 1.00e+00h  1
 324 -1.4042493e-01 1.80e-04 1.26e+02  -7.5 7.09e+00    -  9.86e-01 5.32e-01h  1
 325 -1.4043086e-01 1.29e-02 1.03e+02  -7.5 1.71e+02    -  9.38e-01 1.86e-01h  1
 326 -1.4043308e-01 2.13e-02 9.75e+01  -7.5 4.74e+02    -  9.50e-01 5.68e-02h  1
 327 -1.4045766e-01 4.61e+00 4.33e+01  -7.5 9.27e+02    -  9.92e-01 6.51e-01f  1
 328 -1.4047472e-01 9.09e+00 2.97e+01  -7.5 2.21e+03    -  3.32e-02 3.05e-01h  2
 329 -1.4048240e-01 9.95e+00 2.74e+01  -7.5 4.66e+03    -  3.25e-01 7.27e-02h  3
iter    objective    inf_pr   inf_du lg(mu)  ||d||  lg(rg) alpha_du alpha_pr  ls
 330 -1.4048926e-01 1.09e+01 2.61e+01  -7.5 5.80e+03    -  1.45e-01 5.71e-02h  3
 331 -1.4049713e-01 1.17e+01 2.46e+01  -7.5 3.68e+03    -  2.24e-01 1.04e-01h  3
 332 -1.4050499e-01 1.27e+01 2.38e+01  -7.5 3.72e+03    -  8.60e-01 1.06e-01h  3
 333 -1.4054672e-01 6.83e+01 2.23e+02  -7.5 2.21e+03    -  1.00e+00 1.00e+00h  1
 334 -1.4054489e-01 2.26e+01 2.01e+02  -7.5 8.07e+01    -  4.96e-02 6.71e-01h  1
 335 -1.4055547e-01 8.35e+00 1.03e+02  -7.5 7.16e+02 -11.0 6.34e-01 1.00e+00h  1
 336 -1.4058463e-01 6.11e+01 2.03e+02  -7.5 6.14e+03    -  4.08e-01 3.05e-01h  1
 337 -1.4057974e-01 3.92e-01 8.01e+00  -7.5 2.12e+02    -  1.00e+00 1.00e+00h  1
 338 -1.4059594e-01 2.32e+01 8.57e+01  -7.5 1.17e+03    -  2.90e-01 1.00e+00h  1
 339 -1.4061539e-01 4.31e+01 1.47e+02  -7.5 1.53e+03    -  6.65e-02 1.00e+00h  1
iter    objective    inf_pr   inf_du lg(mu)  ||d||  lg(rg) alpha_du alpha_pr  ls
 340 -1.4060699e-01 7.28e+00 2.29e+02  -7.5 6.50e+02    -  9.94e-02 1.00e+00h  1
 341 -1.4060718e-01 4.13e-02 3.67e+00  -7.5 2.63e+01  -9.7 9.89e-01 1.00e+00h  1
 342 -1.4061908e-01 1.58e+01 6.85e+01  -7.5 3.05e+03    -  9.81e-02 2.99e-01h  1
 343 -1.4060961e-01 9.84e+00 3.89e+01  -7.5 7.15e+02    -  1.00e+00 1.00e+00h  1
 344 -1.4061932e-01 1.08e+01 4.40e+01  -7.5 7.41e+02    -  1.00e+00 1.00e+00h  1
 345 -1.4062012e-01 5.62e-02 1.62e+00  -7.5 5.27e+01    -  1.00e+00 1.00e+00h  1
 346 -1.4062001e-01 1.21e-03 1.56e-02  -7.5 7.81e+00    -  1.00e+00 1.00e+00h  1
 347 -1.4062002e-01 2.94e-06 2.52e-05  -7.5 3.82e-01    -  1.00e+00 1.00e+00h  1
 348 -1.4062002e-01 8.10e-09 5.38e-08  -7.5 2.01e-02    -  1.00e+00 1.00e+00h  1
 349 -1.4062328e-01 9.23e-02 2.40e+00  -9.0 2.59e+02    -  2.88e-01 3.04e-01h  1
iter    objective    inf_pr   inf_du lg(mu)  ||d||  lg(rg) alpha_du alpha_pr  ls
 350 -1.4063018e-01 2.10e+01 7.95e+01  -9.0 1.17e+05    -  2.16e-02 8.78e-03h  1
 351 -1.4063790e-01 2.77e+01 1.19e+02  -9.0 3.62e+03    -  1.86e-01 2.32e-01h  1
 352 -1.4064255e-01 2.74e+01 1.26e+02  -9.0 4.34e+03    -  2.91e-01 1.62e-01h  1
 353 -1.4064967e-01 4.42e+01 1.33e+02  -9.0 3.43e+03    -  3.20e-01 3.66e-01h  1
 354 -1.4065356e-01 4.07e+01 2.54e+01  -9.0 1.55e+03    -  1.00e-02 8.19e-01h  1
 355 -1.4065068e-01 1.55e-01 7.70e+00  -9.0 1.02e+02    -  4.01e-02 1.00e+00h  1
 356 -1.4065131e-01 8.47e-02 7.37e-01  -9.0 6.42e+01    -  1.00e+00 1.00e+00h  1
 357 -1.4065130e-01 2.12e-02 8.98e-02  -9.0 3.23e+01    -  1.00e+00 1.00e+00h  1
 358 -1.4065129e-01 6.76e-08 1.75e-05  -9.0 3.78e-02    -  1.00e+00 1.00e+00h  1
 359 -1.4065129e-01 2.68e-10 2.60e-12  -9.0 2.76e-05    -  1.00e+00 1.00e+00h  1

Number of Iterations....: 359

                                   (scaled)                 (unscaled)
Objective...............:  -1.4065129338042109e-01   -1.4065129338042109e-01
Dual infeasibility......:   2.5979912665619054e-12    2.5979912665619054e-12
Constraint violation....:   2.6778217143696992e-10    2.6778217143696992e-10
Complementarity.........:   9.0909098744118861e-10    9.0909098744118861e-10
Overall NLP error.......:   9.0909098744118861e-10    9.0909098744118861e-10


Number of objective function evaluations             = 905
Number of objective gradient evaluations             = 352
Number of equality constraint evaluations            = 906
Number of inequality constraint evaluations          = 906
Number of equality constraint Jacobian evaluations   = 372
Number of inequality constraint Jacobian evaluations = 372
Number of Lagrangian Hessian evaluations             = 359
Total CPU secs in IPOPT (w/o function evaluations)   =    169.715
Total CPU secs in NLP function evaluations           =      7.159

EXIT: Optimal Solution Found.
